; benchmark generated from python API
(set-info :status unknown)
(declare-datatypes ((RealState 0)) (((RMk1 (rval1 Real)) (RMk2 (rval2 Real)))))
 (declare-fun x1 () Real)
(assert
 (let (($x3157 (forall ((?y1 Real) )(exists ((?y3_st RealState) (val!204 Real) )(let (($x7476 (exists ((?y4 Real) )(! (let (($x7090 (or (= (+ (* 60.0 (rval2 ?y3_st)) (* (- 44.0) ?y1)) (- 18.0)) (>= (+ (* 11.0 (rval2 ?y3_st)) (* (- 11.0) ?y1)) 1.0))))
 (let ((?x5266 (* 92.0 x1)))
 (let ((?x10944 (+ (+ (* (- 8.0) ?y4) (* (- 93.0) (rval2 ?y3_st))) (* 4.0 ?y1))))
 (let (($x7665 (> (+ (* (- 56.0) ?y4) (* 99.0 x1)) 32.0)))
 (let (($x3834 (>= (+ (* 80.0 ?y4) (* 80.0 x1)) 67.0)))
 (let (($x1251 (not (= (+ (* (- 53.0) ?y4) (* 89.0 x1)) 0.0))))
 (let (($x12809 (<= (+ (+ (* 85.0 (rval2 ?y3_st)) (* 14.0 ?y1)) (* (- 24.0) x1)) 0.0)))
 (let (($x7461 (or (and (or $x12809 $x1251) $x3834) (and (and $x7665 (not (= (+ ?x10944 ?x5266) 0.0))) $x7090))))
 (let ((?x13192 (- 60.0)))
 (let ((?x254 (* (- 48.0) x1)))
 (let (($x10807 (not (= (+ (+ (* (- 28.0) ?y4) (* (- 39.0) ?y1)) ?x254) ?x13192))))
 (let (($x12905 (and $x10807 (< (+ (* (- 44.0) (rval2 ?y3_st)) (* 90.0 ?y1)) 0.0))))
 (let ((?x5960 (- 74.0)))
 (let ((?x12691 (+ (+ (* (- 39.0) ?y4) (* (- 73.0) (rval2 ?y3_st))) (* 53.0 ?y1))))
 (let (($x9932 (>= (+ (+ (* (- 50.0) (rval2 ?y3_st)) (* 96.0 ?y1)) (* 99.0 x1)) 67.0)))
 (or (and (or $x9932 (< ?x12691 ?x5960)) $x12905) $x7461)))))))))))))))) :qid k!18))
 ))
 (let (($x9568 (exists ((?y4 Real) )(! (let ((?x13071 (- 86.0)))
 (let ((?x11251 (* (- 61.0) x1)))
 (let (($x11433 (>= (+ (+ (* (- 68.0) ?y4) (* (- 1.0) (rval2 ?y3_st))) ?x11251) ?x13071)))
 (let ((?x553 (- 27.0)))
 (let ((?x2952 (- 21.0)))
 (let ((?x12135 (* ?x2952 x1)))
 (let ((?x8557 (* 60.0 ?y1)))
 (let ((?x2646 (+ (+ (+ (* (- 60.0) ?y4) (* (- 47.0) (rval2 ?y3_st))) ?x8557) ?x12135)))
 (let (($x5910 (and (>= (+ (* 55.0 ?y4) (* (- 38.0) ?y1)) 0.0) (not (= (+ (* 38.0 ?y1) (* (- 45.0) x1)) 0.0)))))
 (let (($x5490 (>= (+ (* 35.0 (rval2 ?y3_st)) (* 50.0 ?y1)) 0.0)))
 (let ((?x13192 (- 60.0)))
 (let ((?x8708 (* ?x13192 x1)))
 (let (($x5758 (and (= (+ (+ (* (- 83.0) (rval2 ?y3_st)) (* 5.0 ?y1)) ?x8708) 69.0) $x5490)))
 (or (and $x5758 $x5910) (and (not (= ?x2646 ?x553)) $x11433))))))))))))))) :qid k!18))
 ))
 (let (($x7197 (exists ((?y4 Real) )(! (let ((?x5568 (* 57.0 x1)))
 (let ((?x5810 (+ (+ (+ (* 61.0 ?y4) (* (- 70.0) (rval2 ?y3_st))) (* 68.0 ?y1)) ?x5568)))
 (let (($x10565 (>= (+ (+ (* 35.0 ?y4) (* 36.0 (rval2 ?y3_st))) (* 52.0 ?y1)) 0.0)))
 (let (($x5749 (>= (+ (+ (* 22.0 ?y4) (* 22.0 ?y1)) (* (- 12.0) x1)) 0.0)))
 (let ((?x3722 (- 31.0)))
 (let ((?x6161 (* 49.0 x1)))
 (let (($x1218 (<= (+ (+ (* (- 3.0) (rval2 ?y3_st)) (* (- 55.0) ?y1)) ?x6161) ?x3722)))
 (and (or $x1218 (or $x5749 $x10565)) (<= ?x5810 0.0))))))))) :qid k!18))
 ))
 (let (($x11628 (not (= ?y3_st (RMk1 val!204)))))
 (and $x11628 (and (or $x7197 $x9568) $x7476)))))))
 )
 ))
 (let (($x11044 (forall ((?y2 Real) )(exists ((?y3_st RealState) (val!203 Real) )(forall ((?y4 Real) )(let ((?x10770 (- 1.0)))
 (let ((?x7629 (* (- 79.0) x1)))
 (let ((?x11718 (+ (+ (+ (* 59.0 ?y4) (* 66.0 (rval2 ?y3_st))) (* (- 35.0) ?y2)) ?x7629)))
 (let (($x13210 (<= (+ (+ (* (- 76.0) ?y4) (* ?x10770 (rval2 ?y3_st))) (* 10.0 ?y2)) 59.0)))
 (let ((?x10567 (+ (+ (* (- 91.0) ?y4) (* 84.0 (rval2 ?y3_st))) (* (- 57.0) ?y2))))
 (let ((?x8720 (- 45.0)))
 (let ((?x11741 (* (- 71.0) x1)))
 (let ((?x585 (+ (+ (+ (* 88.0 ?y4) (* 46.0 (rval2 ?y3_st))) (* (- 21.0) ?y2)) ?x11741)))
 (let ((?x1060 (* (- 80.0) x1)))
 (let ((?x72 (+ (+ (+ (* (- 41.0) ?y4) (* 93.0 (rval2 ?y3_st))) (* 10.0 ?y2)) ?x1060)))
 (let (($x2661 (or (< (+ (* (- 17.0) ?y4) (* (- 65.0) ?y2)) (- 86.0)) (>= ?x72 40.0))))
 (let (($x4462 (or (and $x2661 (and (<= ?x585 ?x8720) (<= ?x10567 0.0))) (or $x13210 (or (>= (* 65.0 (rval2 ?y3_st)) 0.0) (> ?x11718 ?x10770))))))
 (let ((?x13071 (- 86.0)))
 (let ((?x11337 (- 65.0)))
 (let ((?x5616 (* ?x11337 x1)))
 (let ((?x13216 (+ (+ (+ (* 85.0 ?y4) (* 16.0 (rval2 ?y3_st))) (* 61.0 ?y2)) ?x5616)))
 (let (($x413 (and (< ?x13216 ?x13071) (>= (+ (* (- 28.0) ?y2) (* 33.0 x1)) (- 44.0)))))
 (let ((?x5960 (- 74.0)))
 (let ((?x12036 (- 68.0)))
 (let ((?x4061 (* ?x12036 x1)))
 (let ((?x8896 (+ (+ (* 92.0 ?y4) (* (- 7.0) (rval2 ?y3_st))) (* (- 26.0) ?y2))))
 (let ((?x8237 (- 44.0)))
 (let ((?x10776 (- 42.0)))
 (let ((?x3666 (* ?x10776 x1)))
 (let ((?x8220 (+ (+ (* (- 15.0) ?y4) (* (- 5.0) (rval2 ?y3_st))) (* (- 43.0) ?y2))))
 (let ((?x6003 (- 43.0)))
 (let (($x3098 (> (+ (+ (* (- 72.0) ?y4) (* (- 9.0) (rval2 ?y3_st))) ?x3666) ?x6003)))
 (let (($x9324 (or (and (or $x3098 (< (+ ?x8220 ?x3666) ?x8237)) (>= (+ ?x8896 ?x4061) ?x5960)) $x413)))
 (let ((?x8876 (- 56.0)))
 (let ((?x12196 (* 66.0 x1)))
 (let (($x3242 (>= (+ (+ (* (- 18.0) (rval2 ?y3_st)) (* (- 63.0) ?y2)) ?x12196) ?x8876)))
 (let (($x12998 (<= (+ (+ (* 70.0 ?y4) (* (- 63.0) (rval2 ?y3_st))) (* 81.0 ?y2)) 0.0)))
 (let ((?x5478 (+ (+ (* 36.0 ?y4) (* (- 76.0) (rval2 ?y3_st))) (* (- 40.0) ?y2))))
 (let ((?x6948 (* 61.0 x1)))
 (let ((?x10958 (+ (+ (* (- 20.0) ?y4) (* (- 18.0) (rval2 ?y3_st))) (* (- 60.0) ?y2))))
 (let (($x11870 (not (= (+ (+ (* 65.0 ?y4) (* 82.0 ?y2)) (* 19.0 x1)) 5.0))))
 (let (($x8494 (not (= (+ (* 77.0 ?y4) (* (- 18.0) x1)) 0.0))))
 (let ((?x10880 (- 85.0)))
 (let (($x10140 (= (+ (+ (* (- 88.0) ?y4) (* 45.0 ?y2)) (* (- 78.0) x1)) ?x10880)))
 (let (($x918 (and (or (or (not $x10140) $x8494) (and $x11870 (<= (+ ?x10958 ?x6948) 0.0))) (and (or (= ?x5478 ?x10776) $x12998) $x3242))))
 (let ((?x5657 (+ (+ (* (- 70.0) ?y4) (* (- 94.0) (rval2 ?y3_st))) (* (- 93.0) ?y2))))
 (let (($x2949 (or (>= (+ (* (- 51.0) ?y4) (* (- 97.0) (rval2 ?y3_st))) ?x8237) (= ?x5657 0.0))))
 (let ((?x12972 (+ (+ (+ (* 22.0 ?y4) (* 75.0 (rval2 ?y3_st))) (* 63.0 ?y2)) ?x4061)))
 (let ((?x5717 (- 47.0)))
 (let ((?x1543 (+ (+ (+ (* 18.0 ?y4) (* 83.0 (rval2 ?y3_st))) (* 95.0 ?y2)) ?x11741)))
 (let (($x10655 (or (and (and (or (>= ?x1543 ?x5717) (= ?x12972 0.0)) $x2949) $x918) (or $x9324 $x4462))))
 (let (($x10998 (not (= ?y3_st (RMk1 val!203)))))
 (and $x10998 $x10655)))))))))))))))))))))))))))))))))))))))))))))))))
 )
 )
 ))
 (or $x11044 $x3157))))
(check-sat)
